; benchmark generated from python API
(set-info :status unknown)
(declare-datatypes ((IntState 0)) (((Mk1 (val1 Int)) (Mk2 (val2 Int)))))
 (declare-fun c_main_~i~6 () Int)
(declare-fun c_main_~k~6 () Int)
(declare-fun c_main_~j~6 () Int)
(assert
 (let (($x174 (<= c_main_~i~6 3)))
 (let (($x164 (exists ((main_~i~6_st IntState) (val!132 Int) )(let ((?x56 (val2 main_~i~6_st)))
 (let (($x95 (<= ?x56 4)))
 (let (($x61 (and (<= c_main_~j~6 (+ (* 2 ?x56) 2)) $x95 (<= ?x56 c_main_~k~6))))
 (let (($x52 (not (= main_~i~6_st (Mk1 val!132)))))
 (and $x52 $x61))))))
 ))
 (let (($x47 (<= c_main_~i~6 4)))
 (let (($x110 (<= c_main_~j~6 (+ (* 2 c_main_~i~6) 2))))
 (let ((?x162 (* 2 c_main_~i~6)))
 (let (($x177 (<= c_main_~j~6 ?x162)))
 (let (($x82 (exists ((main_~i~6 Int) )(let (($x71 (<= main_~i~6 4)))
 (and (<= c_main_~j~6 (+ (* 2 main_~i~6) 2)) $x71 (<= main_~i~6 c_main_~k~6))))
 ))
 (let (($x105 (<= c_main_~j~6 (+ ?x162 1))))
 (and (and $x105 $x47 $x110 $x82 $x177 $x174) (not (and $x110 $x47 $x164 $x174))))))))))))
(check-sat)
